; benchmark generated from python API
(set-info :status unknown)
(declare-fun DISJ_W_S1_R_S1 () Bool)
(declare-fun DISJ_W_S2_R_S1 () Bool)
(declare-fun W_S2_V5 () Bool)
(declare-fun W_S1_V4 () Bool)
(declare-fun R_S2_V3 () Bool)
(declare-fun R_S1_V1 () Bool)
(declare-fun DISJ_W_S1_W_S2 () Bool)
(declare-fun DISJ_W_S1_R_S2 () Bool)
(declare-fun W_S1_V5 () Bool)
(declare-fun R_S1_V4 () Bool)
(declare-fun R_S1_V5 () Bool)
(declare-fun DISJ_W_S2_R_S2 () Bool)
(declare-fun R_E1_V4 () Bool)
(declare-fun R_E1_V5 () Bool)
(declare-fun W_S2_V2 () Bool)
(declare-fun W_S2_V3 () Bool)
(declare-fun W_S2_V1 () Bool)
(declare-fun R_S2_V4 () Bool)
(declare-fun R_S2_V5 () Bool)
(declare-fun R_S2_V2 () Bool)
(declare-fun R_S2_V1 () Bool)
(declare-fun R_S1_V2 () Bool)
(declare-fun R_S1_V3 () Bool)
(declare-fun R_E1_V2 () Bool)
(declare-fun DISJ_W_S2_R_E1 () Bool)
(declare-fun R_E1_V3 () Bool)
(declare-fun W_S2_V4 () Bool)
(declare-fun W_S1_V3 () Bool)
(declare-fun W_S1_V2 () Bool)
(declare-fun W_S1_V1 () Bool)
(declare-fun R_E1_V1 () Bool)
(declare-fun DISJ_W_S1_R_E1 () Bool)
(assert
 (let (($x3609 (not W_S2_V5)))
 (let (($x3668 (not W_S1_V4)))
 (let (($x2392 (not R_S2_V3)))
 (let (($x572 (not R_S1_V1)))
 (let (($x326 (not (and $x572 $x2392 $x3668 $x3609 DISJ_W_S2_R_S1 DISJ_W_S1_R_S1))))
 (let (($x4945 (not (and $x572 DISJ_W_S2_R_S1 DISJ_W_S1_W_S2 DISJ_W_S1_R_S1))))
 (let (($x5328 (and DISJ_W_S1_R_S2 DISJ_W_S2_R_S1)))
 (let (($x2327 (not $x5328)))
 (let (($x2655 (not W_S1_V5)))
 (let (($x5363 (not R_S1_V4)))
 (let (($x1344 (not R_S1_V5)))
 (let (($x676 (not (and $x1344 $x5363 $x2655 $x3668 DISJ_W_S1_R_S2))))
 (let (($x5040 (not (and $x5363 $x2655 $x3668 $x3609 DISJ_W_S1_R_S2))))
 (let (($x5881 (and DISJ_W_S2_R_S1 DISJ_W_S2_R_S2)))
 (let (($x1982 (not $x5881)))
 (let (($x5006 (not (and W_S1_V4 R_E1_V4))))
 (let (($x2109 (not (and W_S1_V5 R_E1_V5))))
 (let (($x4857 (forall ((V3_0 Int) )(forall ((V2_0 Int) )(forall ((V5_0 Int) )(forall ((V4_0 Int) )(forall ((MW_S1_V1 Bool) )(forall ((MW_S1_V3 Bool) )(forall ((MW_S1_V2 Bool) )(forall ((MW_S1_V5 Bool) )(forall ((MW_S1_V4 Bool) )(forall ((MW_S2_V1 Bool) )(forall ((MW_S2_V3 Bool) )(forall ((MW_S2_V2 Bool) )(forall ((MW_S2_V5 Bool) )(forall ((MW_S2_V4 Bool) )(forall ((S1_V1_!6442 Int) )(forall ((S1_V1_!6447 Int) )(forall ((S1_V1_!6464 Int) )(forall ((S1_V1_!6474 Int) )(forall ((S2_V5_!6456 Int) )(forall ((S2_V5_!6461 Int) )(forall ((S2_V5_!6472 Int) )(forall ((S2_V5_!6482 Int) )(forall ((S1_V3_!6443 Int) )(forall ((S1_V3_!6448 Int) )(forall ((S1_V3_!6465 Int) )(forall ((S1_V3_!6475 Int) )(forall ((S1_V2_!6444 Int) )(forall ((S1_V2_!6449 Int) )(forall ((S1_V2_!6466 Int) )(forall ((S1_V2_!6476 Int) )(forall ((E1_!6441 Int) )(forall ((E1_!6452 Int) )(forall ((E1_!6463 Int) )(forall ((S2_V4_!6457 Int) )(forall ((S2_V4_!6462 Int) )(forall ((S2_V4_!6473 Int) )(forall ((S2_V4_!6483 Int) )(forall ((S1_V5_!6445 Int) )(forall ((S1_V5_!6450 Int) )(forall ((S1_V5_!6467 Int) )(forall ((S1_V5_!6477 Int) )(forall ((S2_V1_!6453 Int) )(forall ((S2_V1_!6458 Int) )(forall ((S2_V1_!6469 Int) )(forall ((S2_V1_!6479 Int) )(forall ((S1_V4_!6446 Int) )(forall ((S1_V4_!6451 Int) )(forall ((S1_V4_!6468 Int) )(forall ((S1_V4_!6478 Int) )(forall ((S2_V2_!6455 Int) )(forall ((S2_V2_!6460 Int) )(forall ((S2_V2_!6471 Int) )(forall ((S2_V2_!6481 Int) )(forall ((S2_V3_!6454 Int) )(forall ((S2_V3_!6459 Int) )(forall ((S2_V3_!6470 Int) )(forall ((S2_V3_!6480 Int) )(let (($x3520 (= (ite MW_S2_V4 S2_V4_!6462 (ite MW_S1_V4 S1_V4_!6451 V4_0)) (ite MW_S2_V4 S2_V4_!6483 (ite MW_S1_V4 S1_V4_!6478 (ite MW_S2_V4 S2_V4_!6473 (ite MW_S1_V4 S1_V4_!6468 V4_0)))))))
 (let (($x1134 (= (ite MW_S2_V5 S2_V5_!6461 (ite MW_S1_V5 S1_V5_!6450 V5_0)) (ite MW_S2_V5 S2_V5_!6482 (ite MW_S1_V5 S1_V5_!6477 (ite MW_S2_V5 S2_V5_!6472 (ite MW_S1_V5 S1_V5_!6467 V5_0)))))))
 (let ((?x5114 (ite MW_S1_V2 S1_V2_!6466 V2_0)))
 (let ((?x822 (ite MW_S2_V2 S2_V2_!6471 ?x5114)))
 (let ((?x419 (ite MW_S1_V2 S1_V2_!6476 ?x822)))
 (let ((?x5802 (ite MW_S2_V2 S2_V2_!6481 ?x419)))
 (let ((?x828 (ite MW_S1_V2 S1_V2_!6449 V2_0)))
 (let ((?x3560 (ite MW_S2_V2 S2_V2_!6460 ?x828)))
 (let (($x871 (= (ite MW_S2_V3 S2_V3_!6459 (ite MW_S1_V3 S1_V3_!6448 V3_0)) (ite MW_S2_V3 S2_V3_!6480 (ite MW_S1_V3 S1_V3_!6475 (ite MW_S2_V3 S2_V3_!6470 (ite MW_S1_V3 S1_V3_!6465 V3_0)))))))
 (let ((?x5808 (ite MW_S1_V1 S1_V1_!6464 E1_!6463)))
 (let ((?x1807 (ite MW_S2_V1 S2_V1_!6469 ?x5808)))
 (let ((?x1729 (+ 1 ?x1807)))
 (let ((?x2277 (ite MW_S1_V1 S1_V1_!6474 ?x1729)))
 (let ((?x5209 (ite MW_S2_V1 S2_V1_!6479 ?x2277)))
 (let ((?x8 (ite MW_S2_V1 S2_V1_!6453 E1_!6452)))
 (let ((?x67 (+ 1 ?x8)))
 (let ((?x75 (ite MW_S2_V1 S2_V1_!6458 ?x67)))
 (let (($x2396 (>= (ite MW_S1_V1 S1_V1_!6447 (+ 1 (ite MW_S1_V1 S1_V1_!6442 E1_!6441))) (+ (- 1) ?x828))))
 (let (($x3012 (and (not (<= V2_0 E1_!6441)) (not (<= (ite MW_S1_V2 S1_V2_!6444 V2_0) (+ 1 (ite MW_S1_V1 S1_V1_!6442 E1_!6441)))) $x2396 (not (<= ?x828 E1_!6452)) (not (<= (ite MW_S2_V2 S2_V2_!6455 ?x828) ?x67)) (>= ?x75 (+ (- 1) ?x3560)) (not (<= V2_0 E1_!6463)) (not (<= ?x822 ?x1729)) (>= ?x5209 (+ (- 1) ?x5802)))))
 (let (($x577 (= S2_V3_!6470 S2_V3_!6480)))
 (let ((?x2281 (ite MW_S1_V4 S1_V4_!6468 V4_0)))
 (let ((?x3637 (ite MW_S2_V4 S2_V4_!6473 ?x2281)))
 (let ((?x6006 (ite MW_S1_V4 S1_V4_!6478 ?x3637)))
 (let (($x1036 (not R_S2_V4)))
 (let ((?x496 (ite MW_S1_V5 S1_V5_!6467 V5_0)))
 (let ((?x2852 (ite MW_S2_V5 S2_V5_!6472 ?x496)))
 (let ((?x480 (ite MW_S1_V5 S1_V5_!6477 ?x2852)))
 (let (($x5434 (not R_S2_V5)))
 (let ((?x4717 (ite MW_S1_V3 S1_V3_!6465 V3_0)))
 (let ((?x2750 (ite MW_S2_V3 S2_V3_!6470 ?x4717)))
 (let ((?x3151 (ite MW_S1_V3 S1_V3_!6475 ?x2750)))
 (let (($x2392 (not R_S2_V3)))
 (let (($x896 (and (or (not R_S2_V1) (= ?x5808 ?x2277)) (or $x2392 (= ?x4717 ?x3151)) (or (not R_S2_V2) (= ?x5114 ?x419)) (or $x5434 (= ?x496 ?x480)) (or $x1036 (= ?x2281 ?x6006)))))
 (let (($x3343 (not $x896)))
 (let (($x3984 (= S2_V3_!6470 S2_V3_!6454)))
 (let (($x2245 (and (or (not R_S2_V1) (= ?x5808 E1_!6452)) (or $x2392 (= ?x4717 (ite MW_S1_V3 S1_V3_!6448 V3_0))) (or (not R_S2_V2) (= ?x5114 ?x828)) (or $x5434 (= ?x496 (ite MW_S1_V5 S1_V5_!6450 V5_0))) (or $x1036 (= ?x2281 (ite MW_S1_V4 S1_V4_!6451 V4_0))))))
 (let (($x4264 (not $x2245)))
 (let (($x4869 (= S2_V3_!6459 S2_V3_!6480)))
 (let (($x1576 (and (or (not R_S2_V1) (= ?x8 (+ (- 1) ?x2277))) (or $x2392 (= (ite MW_S2_V3 S2_V3_!6454 (ite MW_S1_V3 S1_V3_!6448 V3_0)) ?x3151)) (or (not R_S2_V2) (= (ite MW_S2_V2 S2_V2_!6455 ?x828) ?x419)) (or $x5434 (= (ite MW_S2_V5 S2_V5_!6456 (ite MW_S1_V5 S1_V5_!6450 V5_0)) ?x480)) (or $x1036 (= (ite MW_S2_V4 S2_V4_!6457 (ite MW_S1_V4 S1_V4_!6451 V4_0)) ?x6006)))))
 (let (($x3326 (not $x1576)))
 (let (($x2344 (= S2_V3_!6459 S2_V3_!6470)))
 (let (($x5839 (and (or (not R_S2_V1) (= ?x8 (+ (- 1) ?x5808))) (or $x2392 (= (ite MW_S2_V3 S2_V3_!6454 (ite MW_S1_V3 S1_V3_!6448 V3_0)) ?x4717)) (or (not R_S2_V2) (= (ite MW_S2_V2 S2_V2_!6455 ?x828) ?x5114)) (or $x5434 (= (ite MW_S2_V5 S2_V5_!6456 (ite MW_S1_V5 S1_V5_!6450 V5_0)) ?x496)) (or $x1036 (= (ite MW_S2_V4 S2_V4_!6457 (ite MW_S1_V4 S1_V4_!6451 V4_0)) ?x2281)))))
 (let (($x5334 (not $x5839)))
 (let (($x5371 (= S2_V3_!6459 S2_V3_!6454)))
 (let (($x3130 (or $x1036 (= (ite MW_S2_V4 S2_V4_!6457 (ite MW_S1_V4 S1_V4_!6451 V4_0)) (ite MW_S1_V4 S1_V4_!6451 V4_0)))))
 (let (($x2321 (or $x5434 (= (ite MW_S2_V5 S2_V5_!6456 (ite MW_S1_V5 S1_V5_!6450 V5_0)) (ite MW_S1_V5 S1_V5_!6450 V5_0)))))
 (let (($x2365 (or $x2392 (= (ite MW_S2_V3 S2_V3_!6454 (ite MW_S1_V3 S1_V3_!6448 V3_0)) (ite MW_S1_V3 S1_V3_!6448 V3_0)))))
 (let (($x747 (and (or (not R_S2_V1) (= ?x8 (+ (- 1) E1_!6452))) $x2365 (or (not R_S2_V2) (= (ite MW_S2_V2 S2_V2_!6455 ?x828) ?x828)) $x2321 $x3130)))
 (let (($x2359 (not $x747)))
 (let (($x606 (= S2_V3_!6454 S2_V3_!6480)))
 (let (($x4742 (and (or (not R_S2_V1) (= E1_!6452 ?x2277)) (or $x2392 (= (ite MW_S1_V3 S1_V3_!6448 V3_0) ?x3151)) (or (not R_S2_V2) (= ?x828 ?x419)) (or $x5434 (= (ite MW_S1_V5 S1_V5_!6450 V5_0) ?x480)) (or $x1036 (= (ite MW_S1_V4 S1_V4_!6451 V4_0) ?x6006)))))
 (let (($x4437 (not $x4742)))
 (let (($x3015 (= S2_V2_!6481 S2_V2_!6460)))
 (let (($x1174 (and (or (not R_S2_V1) (= ?x2277 ?x67)) (or $x2392 (= ?x3151 (ite MW_S2_V3 S2_V3_!6454 (ite MW_S1_V3 S1_V3_!6448 V3_0)))) (or (not R_S2_V2) (= ?x419 (ite MW_S2_V2 S2_V2_!6455 ?x828))) (or $x5434 (= ?x480 (ite MW_S2_V5 S2_V5_!6456 (ite MW_S1_V5 S1_V5_!6450 V5_0)))) (or $x1036 (= ?x6006 (ite MW_S2_V4 S2_V4_!6457 (ite MW_S1_V4 S1_V4_!6451 V4_0)))))))
 (let (($x5185 (= S2_V2_!6481 S2_V2_!6455)))
 (let (($x725 (and (or (not R_S2_V1) (= ?x2277 E1_!6452)) (or $x2392 (= ?x3151 (ite MW_S1_V3 S1_V3_!6448 V3_0))) (or (not R_S2_V2) (= ?x419 ?x828)) (or $x5434 (= ?x480 (ite MW_S1_V5 S1_V5_!6450 V5_0))) (or $x1036 (= ?x6006 (ite MW_S1_V4 S1_V4_!6451 V4_0))))))
 (let (($x967 (not $x725)))
 (let (($x5755 (= S2_V2_!6471 S2_V2_!6460)))
 (let (($x2476 (and (or (not R_S2_V1) (= ?x5808 ?x67)) (or $x2392 (= ?x4717 (ite MW_S2_V3 S2_V3_!6454 (ite MW_S1_V3 S1_V3_!6448 V3_0)))) (or (not R_S2_V2) (= ?x5114 (ite MW_S2_V2 S2_V2_!6455 ?x828))) (or $x5434 (= ?x496 (ite MW_S2_V5 S2_V5_!6456 (ite MW_S1_V5 S1_V5_!6450 V5_0)))) (or $x1036 (= ?x2281 (ite MW_S2_V4 S2_V4_!6457 (ite MW_S1_V4 S1_V4_!6451 V4_0)))))))
 (let (($x3227 (and (or (not R_S1_V1) (= ?x1807 (ite MW_S1_V1 S1_V1_!6442 E1_!6441))) (or (not R_S1_V3) (= ?x2750 (ite MW_S1_V3 S1_V3_!6443 V3_0))) (or (not R_S1_V2) (= ?x822 (ite MW_S1_V2 S1_V2_!6444 V2_0))) (or (not R_S1_V5) (= ?x2852 (ite MW_S1_V5 S1_V5_!6445 V5_0))) (or (not R_S1_V4) (= ?x3637 (ite MW_S1_V4 S1_V4_!6446 V4_0))))))
 (let (($x2712 (not $x3227)))
 (let (($x5363 (not R_S1_V4)))
 (let (($x215 (or $x5363 (= V4_0 ?x3637))))
 (let (($x1344 (not R_S1_V5)))
 (let (($x2734 (or $x1344 (= V5_0 ?x2852))))
 (let (($x3728 (not R_S1_V2)))
 (let (($x128 (or $x3728 (= V2_0 ?x822))))
 (let (($x1051 (not R_S1_V3)))
 (let (($x3285 (or $x1051 (= V3_0 ?x2750))))
 (let (($x6043 (not (and (or (not R_S1_V1) (= E1_!6463 ?x1729)) $x3285 $x128 $x2734 $x215))))
 (let (($x2811 (or $x5363 (= V4_0 (ite MW_S1_V4 S1_V4_!6446 V4_0)))))
 (let (($x2713 (or $x1344 (= V5_0 (ite MW_S1_V5 S1_V5_!6445 V5_0)))))
 (let (($x586 (or $x3728 (= V2_0 (ite MW_S1_V2 S1_V2_!6444 V2_0)))))
 (let (($x2544 (or $x1051 (= V3_0 (ite MW_S1_V3 S1_V3_!6443 V3_0)))))
 (let (($x6019 (and (or (not R_S1_V1) (= E1_!6463 (+ 1 (ite MW_S1_V1 S1_V1_!6442 E1_!6441)))) $x2544 $x586 $x2713 $x2811)))
 (let (($x3661 (not $x6019)))
 (let (($x4882 (not (and (or (not R_S1_V1) (= E1_!6441 ?x1729)) $x3285 $x128 $x2734 $x215))))
 (let (($x3863 (and (or (not R_S1_V1) (= E1_!6441 (+ 1 (ite MW_S1_V1 S1_V1_!6442 E1_!6441)))) $x2544 $x586 $x2713 $x2811)))
 (let (($x2111 (not $x3863)))
 (let (($x5787 (or $x5363 (= ?x3637 V4_0))))
 (let (($x2410 (or $x1344 (= ?x2852 V5_0))))
 (let (($x3172 (or $x3728 (= ?x822 V2_0))))
 (let (($x1848 (or $x1051 (= ?x2750 V3_0))))
 (let (($x2298 (and (or (not R_S1_V1) (= ?x1807 (+ (- 1) E1_!6463))) $x1848 $x3172 $x2410 $x5787)))
 (let (($x2985 (not $x2298)))
 (let (($x217 (and (or (not R_S1_V1) (= ?x1807 (+ (- 1) E1_!6441))) $x1848 $x3172 $x2410 $x5787)))
 (let (($x3318 (not $x217)))
 (let (($x1465 (= S2_V4_!6483 S2_V4_!6473)))
 (let (($x300 (and (or (not R_S2_V1) (= ?x2277 ?x5808)) (or $x2392 (= ?x3151 ?x4717)) (or (not R_S2_V2) (= ?x419 ?x5114)) (or $x5434 (= ?x480 ?x496)) (or $x1036 (= ?x6006 ?x2281)))))
 (let (($x5240 (= E1_!6452 E1_!6463)))
 (let (($x4557 (and (or (not R_E1_V2) (= ?x828 V2_0)) (or (not R_E1_V5) (= (ite MW_S1_V5 S1_V5_!6450 V5_0) V5_0)) (or (not R_E1_V4) (= (ite MW_S1_V4 S1_V4_!6451 V4_0) V4_0)))))
 (let (($x4841 (= E1_!6441 E1_!6463)))
 (let (($x2356 (and (or (not R_E1_V2) (= V2_0 ?x828)) (or (not R_E1_V5) (= V5_0 (ite MW_S1_V5 S1_V5_!6450 V5_0))) (or (not R_E1_V4) (= V4_0 (ite MW_S1_V4 S1_V4_!6451 V4_0))))))
 (let (($x5470 (= S1_V2_!6449 S1_V2_!6476)))
 (let (($x2943 (and (or (not R_S1_V1) (= (ite MW_S1_V1 S1_V1_!6442 E1_!6441) ?x1807)) (or $x1051 (= (ite MW_S1_V3 S1_V3_!6443 V3_0) ?x2750)) (or $x3728 (= (ite MW_S1_V2 S1_V2_!6444 V2_0) ?x822)) (or $x1344 (= (ite MW_S1_V5 S1_V5_!6445 V5_0) ?x2852)) (or $x5363 (= (ite MW_S1_V4 S1_V4_!6446 V4_0) ?x3637)))))
 (let (($x5777 (not $x2943)))
 (let (($x2362 (or $x5363 (= (ite MW_S1_V4 S1_V4_!6446 V4_0) V4_0))))
 (let (($x2218 (or $x1344 (= (ite MW_S1_V5 S1_V5_!6445 V5_0) V5_0))))
 (let (($x4619 (or $x3728 (= (ite MW_S1_V2 S1_V2_!6444 V2_0) V2_0))))
 (let (($x5866 (or $x1051 (= (ite MW_S1_V3 S1_V3_!6443 V3_0) V3_0))))
 (let (($x5440 (and (or (not R_S1_V1) (= (ite MW_S1_V1 S1_V1_!6442 E1_!6441) (+ (- 1) E1_!6463))) $x5866 $x4619 $x2218 $x2362)))
 (let (($x4825 (not $x5440)))
 (let (($x5336 (and (or (not R_S1_V1) (= (ite MW_S1_V1 S1_V1_!6442 E1_!6441) (+ (- 1) E1_!6441))) $x5866 $x4619 $x2218 $x2362)))
 (let (($x2707 (not $x5336)))
 (let (($x483 (and (or (not R_S2_V1) (= E1_!6452 ?x5808)) (or $x2392 (= (ite MW_S1_V3 S1_V3_!6448 V3_0) ?x4717)) (or (not R_S2_V2) (= ?x828 ?x5114)) (or $x5434 (= (ite MW_S1_V5 S1_V5_!6450 V5_0) ?x496)) (or $x1036 (= (ite MW_S1_V4 S1_V4_!6451 V4_0) ?x2281)))))
 (let (($x1588 (and (or (not (or (not R_S1_V1) $x4841)) (= S1_V1_!6442 S1_V1_!6464)) (or $x2707 (= S1_V1_!6447 S1_V1_!6442)) (or $x4825 (= S1_V1_!6447 S1_V1_!6464)) (or $x3318 (= S1_V1_!6474 S1_V1_!6442)) (or $x2712 (= S1_V1_!6474 S1_V1_!6447)) (or $x2985 (= S1_V1_!6474 S1_V1_!6464)) (or (not $x483) (= S2_V5_!6456 S2_V5_!6472)) (or $x4437 (= S2_V5_!6456 S2_V5_!6482)) (or $x2359 (= S2_V5_!6461 S2_V5_!6456)) (or $x5334 (= S2_V5_!6461 S2_V5_!6472)) (or $x3326 (= S2_V5_!6461 S2_V5_!6482)) (or $x3343 (= S2_V5_!6472 S2_V5_!6482)) (or (not (or (not R_S1_V1) $x4841)) (= S1_V3_!6443 S1_V3_!6465)) (or $x4882 (= S1_V3_!6443 S1_V3_!6475)) (or $x2707 (= S1_V3_!6448 S1_V3_!6443)) (or $x4825 (= S1_V3_!6448 S1_V3_!6465)) (or $x5777 (= S1_V3_!6448 S1_V3_!6475)) (or $x6043 (= S1_V3_!6465 S1_V3_!6475)) (or (not (or (not R_S1_V1) $x4841)) (= S1_V2_!6444 S1_V2_!6466)) (or $x2707 (= S1_V2_!6449 S1_V2_!6444)) (or $x4825 (= S1_V2_!6449 S1_V2_!6466)) (or $x5777 $x5470) (or $x3318 (= S1_V2_!6476 S1_V2_!6444)) (or $x2985 (= S1_V2_!6476 S1_V2_!6466)) (or (not $x2356) (= E1_!6441 E1_!6452)) $x4841 (or (not $x4557) $x5240) (or $x2359 (= S2_V4_!6462 S2_V4_!6457)) (or $x5334 (= S2_V4_!6462 S2_V4_!6473)) (or $x3326 (= S2_V4_!6462 S2_V4_!6483)) (or $x4264 (= S2_V4_!6473 S2_V4_!6457)) (or $x967 (= S2_V4_!6483 S2_V4_!6457)) (or (not $x300) $x1465) (or $x2111 (= S1_V5_!6445 S1_V5_!6450)) (or (not (or (not R_S1_V1) (= E1_!6463 E1_!6441))) (= S1_V5_!6467 S1_V5_!6445)) (or $x3661 (= S1_V5_!6467 S1_V5_!6450)) (or $x3318 (= S1_V5_!6477 S1_V5_!6445)) (or $x2712 (= S1_V5_!6477 S1_V5_!6450)) (or $x2985 (= S1_V5_!6477 S1_V5_!6467)) (or $x2359 (= S2_V1_!6458 S2_V1_!6453)) (or $x5334 (= S2_V1_!6458 S2_V1_!6469)) (or $x3326 (= S2_V1_!6458 S2_V1_!6479)) (or $x4264 (= S2_V1_!6469 S2_V1_!6453)) (or $x3343 (= S2_V1_!6469 S2_V1_!6479)) (or $x967 (= S2_V1_!6479 S2_V1_!6453)) (or $x2111 (= S1_V4_!6446 S1_V4_!6451)) (or $x4882 (= S1_V4_!6446 S1_V4_!6478)) (or (not (or (not R_S1_V1) (= E1_!6463 E1_!6441))) (= S1_V4_!6468 S1_V4_!6446)) (or $x3661 (= S1_V4_!6468 S1_V4_!6451)) (or $x6043 (= S1_V4_!6468 S1_V4_!6478)) (or $x2712 (= S1_V4_!6478 S1_V4_!6451)) (or $x2359 (= S2_V2_!6460 S2_V2_!6455)) (or $x4264 (= S2_V2_!6471 S2_V2_!6455)) (or (not $x2476) $x5755) (or $x3343 (= S2_V2_!6471 S2_V2_!6481)) (or $x967 $x5185) (or (not $x1174) $x3015) (or $x4437 $x606) (or $x2359 $x5371) (or $x5334 $x2344) (or $x3326 $x4869) (or $x4264 $x3984) (or $x3343 $x577) (not MW_S1_V1) (not MW_S1_V2) (or (not MW_S1_V5) W_S1_V5) (or (not MW_S1_V4) W_S1_V4) (or (not MW_S2_V1) W_S2_V1) (or (not MW_S2_V3) W_S2_V3) (or (not MW_S2_V2) W_S2_V2) (or (not MW_S2_V5) W_S2_V5))))
 (or (not $x1588) (not $x3012) (and (= ?x75 ?x5209) $x871 (= ?x3560 ?x5802) $x1134 $x3520)))))))))))))))))))))))))))))))))))))))))))))))))))))))))))))))))))))))))))))))))))))))))))))))))))))))))))))
 )
 )
 )
 )
 )
 )
 )
 )
 )
 )
 )
 )
 )
 )
 )
 )
 )
 )
 )
 )
 )
 )
 )
 )
 )
 )
 )
 )
 )
 )
 )
 )
 )
 )
 )
 )
 )
 )
 )
 )
 )
 )
 )
 )
 )
 )
 )
 )
 )
 )
 )
 )
 )
 )
 )
 )
 ))
 (let (($x2711 (not (or (and W_S2_V2 R_E1_V2) (and W_S2_V5 R_E1_V5) R_E1_V4))))
 (let (($x1320 (= DISJ_W_S2_R_E1 $x2711)))
 (let (($x243 (and W_S2_V5 R_S2_V5)))
 (let (($x313 (and W_S2_V2 R_S2_V2)))
 (let (($x2012 (and W_S2_V3 R_S2_V3)))
 (let (($x248 (and W_S2_V1 R_S2_V1)))
 (let (($x4224 (= DISJ_W_S2_R_S2 (not (or $x248 $x2012 $x313 $x243 R_S2_V4)))))
 (let (($x5925 (and W_S2_V5 R_S1_V5)))
 (let (($x977 (and W_S2_V2 R_S1_V2)))
 (let (($x3045 (and W_S2_V3 R_S1_V3)))
 (let (($x5942 (and W_S2_V1 R_S1_V1)))
 (let (($x1670 (= DISJ_W_S2_R_S1 (not (or $x5942 $x3045 $x977 $x5925 R_S1_V4)))))
 (let (($x401 (= DISJ_W_S1_W_S2 (not (or W_S2_V3 (and W_S1_V5 W_S2_V5) W_S1_V4)))))
 (let (($x5351 (not R_E1_V3)))
 (let (($x4571 (not (or R_S2_V3 (and W_S1_V5 R_S2_V5) (and W_S1_V4 R_S2_V4)))))
 (let (($x3587 (= DISJ_W_S1_R_S2 $x4571)))
 (let (($x2526 (not (or R_S1_V3 (and W_S1_V5 R_S1_V5) (and W_S1_V4 R_S1_V4)))))
 (let (($x4397 (= DISJ_W_S1_R_S1 $x2526)))
 (let (($x999 (not W_S2_V3)))
 (let (($x1879 (not W_S2_V2)))
 (let (($x1036 (not R_S2_V4)))
 (let (($x2379 (not R_S2_V1)))
 (let (($x1234 (and $x2379 $x1036 $x1879 $x999 DISJ_W_S2_R_S1)))
 (let (($x5434 (not R_S2_V5)))
 (let (($x301 (and $x5434 $x1036 $x999 DISJ_W_S2_R_S1)))
 (let (($x1575 (and $x1036 $x2655 $x999 DISJ_W_S2_R_S1)))
 (let (($x2616 (and $x2379 $x5434 $x1879 $x999 DISJ_W_S2_R_S1)))
 (let (($x2242 (and $x5434 $x3668 $x999 DISJ_W_S2_R_S1)))
 (let (($x6049 (and $x2379 $x1879 $x3609 $x999 DISJ_W_S2_R_S1)))
 (let (($x2389 (and DISJ_W_S1_W_S2 DISJ_W_S2_R_S1)))
 (let (($x1774 (and $x2379 $x2392 $x5434 $x1879 DISJ_W_S2_R_S1)))
 (let (($x3724 (and $x2379 $x2392 $x1036 $x1879 DISJ_W_S2_R_S1)))
 (let (($x1697 (and $x2379 $x1036 $x1879 $x3609 DISJ_W_S2_R_S1)))
 (let (($x862 (and $x2379 $x5434 $x1036 $x1879 DISJ_W_S2_R_S1)))
 (let (($x98 (and $x2379 $x2392 $x1879 $x3609 DISJ_W_S2_R_S1)))
 (let (($x2467 (and (not W_S2_V1) $x1879)))
 (let (($x5750 (and $x2392 $x1036 $x3609 DISJ_W_S2_R_S1)))
 (let (($x1963 (and $x1036 $x3609 $x999 DISJ_W_S2_R_S1)))
 (let (($x5961 (and $x2392 $x3668 $x3609 DISJ_W_S2_R_S1)))
 (let (($x4854 (and $x1879 DISJ_W_S2_R_S2)))
 (let (($x2803 (or $x5881 $x4854 $x5328 $x5961 $x1963 $x5750 $x2467 $x98 $x862 $x1697 $x3724 $x1774 $x2389 $x6049 $x2242 $x2616 $x1575 $x301 $x1234)))
 (let (($x2150 (and $x572 DISJ_W_S1_R_S1)))
 (let (($x5438 (and $x1879 DISJ_W_S2_R_S1 DISJ_W_S1_R_S1)))
 (let (($x3137 (or $x5438 $x2467 $x2150)))
 (let (($x1638 (not W_S1_V2)))
 (let (($x1974 (not W_S1_V1)))
 (let (($x4983 (not R_E1_V1)))
 (let (($x1387 (and DISJ_W_S1_R_E1 $x4983 $x1974 $x1638 $x3137 $x2803 W_S1_V3 W_S2_V4 $x4397 $x3587 $x5351 $x401 $x1670 $x4224 $x1320 $x4857 $x2109 $x5006)))
 (and $x1387 $x1982 $x5040 $x676 $x2327 $x4945 $x326))))))))))))))))))))))))))))))))))))))))))))))))))))))))))))))))))))
(check-sat)
